7132.0 411415.0 
6880.0 420558.0 
6967.0 415012.0 
6862.0 423647.0 
7035.0 411758.0 
6917.0 418290.0 
7183.0 409663.0 
7008.0 411936.0 
6928.0 416805.0 
6903.0 419561.0 
7057.0 411678.0 
6942.0 415065.0 
7274.0 409557.0 
6936.0 416115.0 
